solution status: optimal solution found
objective value:                     121756.123765308
d11(0,0)                                            1 	(obj:0)
d11(1,1)                                            1 	(obj:0)
d11(1,2)                                            1 	(obj:0)
d11(2,3)                                            1 	(obj:0)
d11(2,4)                                            1 	(obj:0)
d11(2,5)                                            1 	(obj:0)
d11(3,7)                                            1 	(obj:0)
d11(3,9)                                            1 	(obj:0)
d11(3,13)                                           1 	(obj:0)
d12(3,8)                                            1 	(obj:0)
d12(3,10)                                           1 	(obj:0)
d12(3,12)                                           1 	(obj:0)
d12(3,14)                                           1 	(obj:0)
d21(2,3)                                            1 	(obj:0)
d21(3,7)                                            1 	(obj:0)
d21(3,8)                                            1 	(obj:0)
d21(3,9)                                            1 	(obj:0)
WB(2)                                3315.65537776224 	(obj:0)
y2(3,8)                              1385.48851144895 	(obj:0)
y2(3,10)                             1385.48851144895 	(obj:0)
y2(3,12)                               1385.488511449 	(obj:0)
y2(3,14)                               1385.488511449 	(obj:0)
STE(1,1)                             7276.49999999941 	(obj:0)
STE(0,0)                                        11025 	(obj:0)
STE(1,2)                             8934.74989888823 	(obj:0)
STE(2,3)                             4736.25010111062 	(obj:0)
STE(2,4)                             6394.49999999941 	(obj:0)
STE(2,5)                             6394.49999999944 	(obj:0)
STE(2,6)                             8052.74989888823 	(obj:0)
STE(3,7)                             3854.25010111068 	(obj:0)
STE(3,8)                             5170.46418698712 	(obj:0)
STE(3,9)                             5512.49999999941 	(obj:0)
STE(3,10)                            6828.71408587592 	(obj:0)
STE(3,11)                            5512.49999999944 	(obj:0)
STE(3,12)                            6828.71408587599 	(obj:0)
STE(3,13)                            7170.74989888817 	(obj:0)
STE(3,14)                            8486.96398476478 	(obj:0)
AVE(2)                               3315.65537776224 	(obj:0)
WB(3)                                3315.65799770506 	(obj:0)
y1(1,1)                              2579.85000000053 	(obj:0)
y1(1,2)                              1087.42509100059 	(obj:0)
y1(2,3)                              1492.42490899991 	(obj:0)
y1(2,5)                              1492.42490899991 	(obj:0)
AVE(3)                               3315.65799770399 	(obj:0)
WG(1)                                3248.33172520918 	(obj:10)
WG(3)                            -1.06912030249226e-009 	(obj:10)
BG(1)                                2057.57821356691 	(obj:10)
BG(2)                                4196.29249897954 	(obj:10)
BG(3)                                2673.40993877658 	(obj:10)
AVE(1)                               3248.33172520918 	(obj:0)
